p ocr 949 870 1898
2 950
2 952
3 950
4 950
5 950
6 950
7 950
8 950
9 950
10 950
11 950
12 950
13 950
14 950
15 950
16 950
17 950
18 950
19 950
20 950
21 950
22 950
23 950
24 950
25 950
26 950
27 950
28 950
29 950
30 950
31 950
32 950
33 950
34 950
35 950
36 950
37 950
38 950
39 950
40 950
41 950
42 950
43 950
44 950
45 950
46 950
47 950
48 950
49 950
50 950
51 950
52 950
53 950
54 950
55 950
56 950
57 950
58 950
59 950
60 950
61 950
62 950
63 950
64 950
65 950
66 950
67 950
68 950
69 950
70 950
71 950
72 950
73 950
74 950
75 950
76 950
77 950
78 950
79 950
80 950
81 950
82 950
83 950
84 950
85 950
86 950
87 950
88 950
89 950
90 950
91 950
92 950
93 950
94 950
95 950
96 950
97 950
98 950
99 950
100 950
101 950
102 950
103 950
104 950
105 950
106 950
107 950
108 950
109 950
110 950
111 950
112 950
113 950
114 950
115 950
116 950
117 950
118 950
119 950
120 950
1 950
122 950
122 953
122 954
122 955
122 956
122 957
122 958
122 959
122 960
122 961
122 962
122 963
122 964
122 965
122 966
122 967
122 968
122 969
122 970
122 971
122 972
122 973
122 974
122 975
122 976
122 977
122 978
122 979
122 980
122 981
122 982
122 983
122 984
122 985
122 986
122 987
122 988
122 989
122 990
122 991
122 992
122 993
122 994
122 995
122 996
122 997
122 998
122 999
122 1000
122 1001
122 1002
122 1003
122 1004
122 1005
122 1006
122 1007
122 1008
122 1009
122 1010
122 1011
122 1012
122 1013
122 1014
122 1015
122 1016
122 1017
122 1018
122 1019
122 1020
122 1021
122 1022
122 1023
122 1024
122 1025
122 1026
122 1027
122 1028
122 1029
122 1030
122 1031
122 1032
122 1033
122 1034
122 1035
122 1036
122 1037
122 1038
122 1039
122 1040
122 1041
122 1042
122 1043
122 1044
122 1045
122 1046
122 1047
122 1048
122 1049
122 1050
122 1051
122 1052
122 1053
122 1054
122 1055
122 1056
122 1057
122 1058
122 1059
122 1060
122 1061
122 1062
122 1063
122 1064
122 1065
122 1066
122 1067
122 1068
122 1069
122 1070
122 1071
122 951
123 952
124 952
125 952
126 952
127 952
128 952
129 952
130 952
131 952
132 952
133 952
134 952
135 952
121 952
136 952
136 1072
136 1073
136 1074
136 1075
136 1076
137 1072
137 1073
137 1074
137 1075
137 1076
138 1072
138 1073
138 1074
138 1075
138 1076
139 1072
139 1073
139 1074
139 1075
139 1076
140 1072
140 1073
140 1074
140 1075
140 1076
140 1077
140 1078
141 1077
142 1077
143 1077
144 1077
145 1077
146 1077
147 1077
148 1077
149 1077
150 1077
151 1077
152 1077
153 1077
154 1077
155 1077
156 1077
157 1077
158 1077
159 1077
160 1077
161 1077
162 1077
163 1077
164 1077
165 1077
166 1077
167 1077
168 1077
169 1077
170 1077
171 1077
172 1077
173 1077
174 1077
175 1077
176 1077
177 1077
178 1077
179 1077
180 1077
181 1077
182 1077
183 1077
184 1077
185 1077
186 1077
187 1077
188 1077
189 1077
190 1077
191 1077
192 1077
193 1077
194 1077
195 1077
196 1077
197 1077
198 1077
199 1077
200 1077
201 1077
202 1077
203 1077
204 1077
205 1077
206 1077
207 1077
208 1077
209 1077
210 1077
211 1077
212 1077
213 1077
214 1077
215 1077
216 1077
217 1077
219 1077
219 1079
219 1080
219 1081
219 1082
219 1083
219 1084
219 1085
219 1086
219 1087
219 1088
219 1089
219 1090
219 1091
219 1092
219 1093
219 1094
219 1095
219 1096
219 1097
219 1098
219 1099
219 1100
219 1101
219 1102
219 1103
219 1104
219 1105
219 1106
219 1107
219 1108
219 1109
219 1110
219 1111
219 1112
219 1113
219 1114
219 1115
219 1116
219 1117
219 1118
219 1119
219 1120
219 1121
219 1122
219 1123
219 1124
219 1125
219 1126
219 1127
219 1128
219 1129
219 1130
219 1131
219 1132
219 1133
219 1134
219 1135
219 1136
219 1137
219 1138
219 1139
219 1140
219 1141
219 1142
219 1143
219 1144
219 1145
219 1146
219 1147
219 1148
219 1149
219 1150
219 1151
219 1152
219 1153
219 1154
219 1155
219 1156
220 1078
221 1078
222 1078
223 1078
224 1078
225 1078
226 1078
227 1078
228 1078
229 1078
218 1078
230 1078
230 1157
230 1158
230 1159
230 1160
230 1161
231 1157
231 1158
231 1159
231 1160
231 1161
232 1157
232 1158
232 1159
232 1160
232 1161
233 1157
233 1158
233 1159
233 1160
233 1161
234 1157
234 1158
234 1159
234 1160
234 1161
234 1162
234 1163
235 1162
236 1162
237 1162
238 1162
239 1162
240 1162
241 1162
242 1162
243 1162
244 1162
245 1162
246 1162
247 1162
248 1162
249 1162
250 1162
251 1162
252 1162
253 1162
254 1162
255 1162
256 1162
257 1162
258 1162
259 1162
260 1162
261 1162
262 1162
263 1162
264 1162
265 1162
266 1162
267 1162
268 1162
269 1162
270 1162
271 1162
272 1162
273 1162
274 1162
275 1162
276 1162
277 1162
278 1162
279 1162
280 1162
281 1162
282 1162
283 1162
284 1162
285 1162
286 1162
287 1162
288 1162
289 1162
290 1162
291 1162
292 1162
293 1162
294 1162
295 1162
296 1162
297 1162
298 1162
299 1162
300 1162
301 1162
302 1162
303 1162
304 1162
305 1162
306 1162
307 1162
308 1162
309 1162
310 1162
311 1162
312 1162
313 1162
314 1162
315 1162
316 1162
317 1162
318 1162
319 1162
320 1162
321 1162
322 1162
323 1162
324 1162
325 1162
326 1162
327 1162
328 1162
329 1162
330 1162
331 1162
332 1162
333 1162
334 1162
335 1162
336 1162
337 1162
338 1162
339 1162
340 1162
341 1162
342 1162
343 1162
344 1162
345 1162
346 1162
347 1162
348 1162
349 1162
350 1162
351 1162
352 1162
353 1162
354 1162
355 1162
356 1162
357 1162
358 1162
359 1162
360 1162
361 1162
362 1162
363 1162
364 1162
365 1162
366 1162
367 1162
368 1162
369 1162
371 1162
371 1164
371 1165
371 1166
371 1167
371 1168
371 1169
371 1170
371 1171
371 1172
371 1173
371 1174
371 1175
371 1176
371 1177
371 1178
371 1179
371 1180
371 1181
371 1182
371 1183
371 1184
371 1185
371 1186
371 1187
371 1188
371 1189
371 1190
371 1191
371 1192
371 1193
371 1194
371 1195
371 1196
371 1197
371 1198
371 1199
371 1200
371 1201
371 1202
371 1203
371 1204
371 1205
371 1206
371 1207
371 1208
371 1209
371 1210
371 1211
371 1212
371 1213
371 1214
371 1215
371 1216
371 1217
371 1218
371 1219
371 1220
371 1221
371 1222
371 1223
371 1224
371 1225
371 1226
371 1227
371 1228
371 1229
371 1230
371 1231
371 1232
371 1233
371 1234
371 1235
371 1236
371 1237
371 1238
371 1239
371 1240
371 1241
371 1242
371 1243
371 1244
371 1245
371 1246
371 1247
371 1248
371 1249
371 1250
371 1251
371 1252
371 1253
371 1254
371 1255
371 1256
371 1257
371 1258
371 1259
371 1260
371 1261
371 1262
371 1263
371 1264
371 1265
371 1266
371 1267
371 1268
371 1269
371 1270
371 1271
371 1272
371 1273
371 1274
371 1275
371 1276
371 1277
371 1278
371 1279
371 1280
371 1281
371 1282
371 1283
371 1284
371 1285
371 1286
371 1287
371 1288
371 1289
371 1290
371 1291
371 1292
371 1293
371 1294
371 1295
371 1296
371 1297
371 1298
371 1299
372 1163
373 1163
374 1163
375 1163
376 1163
377 1163
378 1163
379 1163
380 1163
381 1163
382 1163
383 1163
384 1163
385 1163
370 1163
386 1163
386 1300
386 1301
386 1302
386 1303
386 1304
387 1300
387 1301
387 1302
387 1303
387 1304
388 1300
388 1301
388 1302
388 1303
388 1304
389 1300
389 1301
389 1302
389 1303
389 1304
390 1300
390 1301
390 1302
390 1303
390 1304
390 1305
390 1306
391 1305
392 1305
393 1305
394 1305
395 1305
396 1305
397 1305
398 1305
399 1305
400 1305
401 1305
402 1305
403 1305
404 1305
405 1305
406 1305
407 1305
408 1305
409 1305
410 1305
411 1305
412 1305
413 1305
414 1305
415 1305
416 1305
417 1305
418 1305
419 1305
420 1305
421 1305
422 1305
423 1305
424 1305
425 1305
426 1305
427 1305
428 1305
429 1305
430 1305
431 1305
432 1305
433 1305
434 1305
435 1305
436 1305
437 1305
438 1305
439 1305
440 1305
441 1305
442 1305
443 1305
444 1305
445 1305
446 1305
447 1305
448 1305
449 1305
450 1305
451 1305
452 1305
453 1305
454 1305
455 1305
456 1305
457 1305
458 1305
459 1305
460 1305
461 1305
462 1305
463 1305
464 1305
465 1305
466 1305
467 1305
469 1305
469 1307
469 1308
469 1309
469 1310
469 1311
469 1312
469 1313
469 1314
469 1315
469 1316
469 1317
469 1318
469 1319
469 1320
469 1321
469 1322
469 1323
469 1324
469 1325
469 1326
469 1327
469 1328
469 1329
469 1330
469 1331
469 1332
469 1333
469 1334
469 1335
469 1336
469 1337
469 1338
469 1339
469 1340
469 1341
469 1342
469 1343
469 1344
469 1345
469 1346
469 1347
469 1348
469 1349
469 1350
469 1351
469 1352
469 1353
469 1354
469 1355
469 1356
469 1357
469 1358
469 1359
469 1360
469 1361
469 1362
469 1363
469 1364
469 1365
469 1366
469 1367
469 1368
469 1369
469 1370
469 1371
469 1372
469 1373
469 1374
469 1375
469 1376
469 1377
469 1378
469 1379
469 1380
469 1381
469 1382
469 1383
469 1384
470 1306
471 1306
472 1306
473 1306
474 1306
475 1306
476 1306
477 1306
478 1306
479 1306
468 1306
480 1306
480 1385
480 1386
480 1387
480 1388
480 1389
481 1385
481 1386
481 1387
481 1388
481 1389
482 1385
482 1386
482 1387
482 1388
482 1389
483 1385
483 1386
483 1387
483 1388
483 1389
484 1385
484 1386
484 1387
484 1388
484 1389
484 1390
484 1392
485 1390
486 1390
487 1390
488 1390
489 1390
490 1390
491 1390
492 1390
493 1390
494 1390
495 1390
496 1390
497 1390
498 1390
499 1390
500 1390
501 1390
502 1390
503 1390
504 1390
505 1390
506 1390
507 1390
508 1390
509 1390
510 1390
511 1390
512 1390
513 1390
514 1390
515 1390
516 1390
517 1390
518 1390
519 1390
520 1390
521 1390
522 1390
523 1390
524 1390
525 1390
526 1390
527 1390
528 1390
529 1390
530 1390
531 1390
532 1390
533 1390
534 1390
535 1390
536 1390
537 1390
538 1390
539 1390
540 1390
541 1390
542 1390
543 1390
544 1390
545 1390
546 1390
547 1390
548 1390
549 1390
550 1390
551 1390
552 1390
553 1390
554 1390
555 1390
556 1390
557 1390
558 1390
559 1390
560 1390
561 1390
562 1390
563 1390
564 1390
565 1390
566 1390
567 1390
568 1390
569 1390
570 1390
571 1390
572 1390
573 1390
574 1390
575 1390
576 1390
577 1390
578 1390
579 1390
580 1390
581 1390
582 1390
583 1390
584 1390
585 1390
586 1390
587 1390
588 1390
589 1390
590 1390
591 1390
592 1390
593 1390
594 1390
595 1390
596 1390
597 1390
598 1390
599 1390
600 1390
601 1390
602 1390
603 1390
604 1390
605 1390
606 1390
607 1390
608 1390
609 1390
610 1390
611 1390
612 1390
613 1390
614 1390
615 1390
616 1390
617 1390
618 1390
619 1390
620 1390
621 1390
622 1390
623 1390
624 1390
625 1390
626 1390
627 1390
628 1390
629 1390
630 1390
631 1390
632 1390
633 1390
634 1390
635 1390
636 1390
637 1390
638 1390
639 1390
640 1390
641 1390
642 1390
643 1390
644 1390
645 1390
646 1390
647 1390
648 1390
649 1390
650 1390
651 1390
652 1390
653 1390
654 1390
655 1390
656 1390
657 1390
658 1390
659 1390
660 1390
661 1390
662 1390
663 1390
664 1390
665 1390
666 1390
667 1390
668 1390
669 1390
670 1390
671 1390
672 1390
673 1390
674 1390
675 1390
676 1390
677 1390
678 1390
679 1390
680 1390
681 1390
682 1390
683 1390
684 1390
685 1390
686 1390
687 1390
688 1390
689 1390
690 1390
691 1390
692 1390
693 1390
694 1390
695 1390
696 1390
697 1390
698 1390
699 1390
700 1390
701 1390
702 1390
703 1390
704 1390
705 1390
706 1390
707 1390
708 1390
709 1390
710 1390
711 1390
712 1390
713 1390
714 1390
716 1390
716 1393
716 1394
716 1395
716 1396
716 1397
716 1398
716 1399
716 1400
716 1401
716 1402
716 1403
716 1404
716 1405
716 1406
716 1407
716 1408
716 1409
716 1410
716 1411
716 1412
716 1413
716 1414
716 1415
716 1416
716 1417
716 1418
716 1419
716 1420
716 1421
716 1422
716 1423
716 1424
716 1425
716 1426
716 1427
716 1428
716 1429
716 1430
716 1431
716 1432
716 1433
716 1434
716 1435
716 1436
716 1437
716 1438
716 1439
716 1440
716 1441
716 1442
716 1443
716 1444
716 1445
716 1446
716 1447
716 1448
716 1449
716 1450
716 1451
716 1452
716 1453
716 1454
716 1455
716 1456
716 1457
716 1458
716 1459
716 1460
716 1461
716 1462
716 1463
716 1464
716 1465
716 1466
716 1467
716 1468
716 1469
716 1470
716 1471
716 1472
716 1473
716 1474
716 1475
716 1476
716 1477
716 1478
716 1479
716 1480
716 1481
716 1482
716 1483
716 1484
716 1485
716 1486
716 1487
716 1488
716 1489
716 1490
716 1491
716 1492
716 1493
716 1494
716 1495
716 1496
716 1497
716 1498
716 1499
716 1500
716 1501
716 1502
716 1503
716 1504
716 1505
716 1506
716 1507
716 1508
716 1509
716 1510
716 1511
716 1512
716 1513
716 1514
716 1515
716 1516
716 1517
716 1518
716 1519
716 1520
716 1521
716 1522
716 1523
716 1524
716 1525
716 1526
716 1527
716 1528
716 1529
716 1530
716 1531
716 1532
716 1533
716 1534
716 1535
716 1536
716 1537
716 1538
716 1539
716 1540
716 1541
716 1542
716 1543
716 1544
716 1545
716 1546
716 1547
716 1548
716 1549
716 1550
716 1551
716 1552
716 1553
716 1554
716 1555
716 1556
716 1557
716 1558
716 1559
716 1560
716 1561
716 1562
716 1563
716 1564
716 1565
716 1566
716 1567
716 1568
716 1569
716 1570
716 1571
716 1572
716 1573
716 1574
716 1575
716 1576
716 1577
716 1578
716 1579
716 1580
716 1581
716 1582
716 1583
716 1584
716 1585
716 1586
716 1587
716 1588
716 1589
716 1590
716 1591
716 1592
716 1593
716 1594
716 1595
716 1596
716 1597
716 1598
716 1599
716 1600
716 1601
716 1602
716 1603
716 1604
716 1605
716 1606
716 1607
716 1608
716 1609
716 1610
716 1611
716 1612
716 1613
716 1614
716 1615
716 1616
716 1617
716 1618
716 1619
716 1620
716 1621
716 1622
716 1391
717 1392
718 1392
719 1392
720 1392
721 1392
722 1392
723 1392
724 1392
725 1392
726 1392
727 1392
728 1392
729 1392
730 1392
731 1392
732 1392
733 1392
734 1392
735 1392
715 1392
736 1392
736 1623
736 1624
736 1625
736 1626
736 1627
737 1623
737 1624
737 1625
737 1626
737 1627
738 1623
738 1624
738 1625
738 1626
738 1627
739 1623
739 1624
739 1625
739 1626
739 1627
740 1623
740 1624
740 1625
740 1626
740 1627
740 1628
740 1629
741 1628
742 1628
743 1628
744 1628
745 1628
746 1628
747 1628
748 1628
749 1628
750 1628
751 1628
752 1628
753 1628
754 1628
755 1628
756 1628
757 1628
758 1628
759 1628
760 1628
761 1628
762 1628
763 1628
764 1628
765 1628
766 1628
767 1628
768 1628
769 1628
770 1628
771 1628
772 1628
773 1628
774 1628
775 1628
776 1628
777 1628
778 1628
779 1628
780 1628
781 1628
782 1628
783 1628
784 1628
785 1628
786 1628
787 1628
788 1628
789 1628
790 1628
791 1628
792 1628
793 1628
794 1628
795 1628
796 1628
797 1628
798 1628
799 1628
800 1628
801 1628
802 1628
803 1628
804 1628
805 1628
806 1628
807 1628
808 1628
809 1628
810 1628
811 1628
812 1628
813 1628
814 1628
815 1628
816 1628
817 1628
818 1628
819 1628
820 1628
821 1628
822 1628
823 1628
824 1628
825 1628
826 1628
827 1628
828 1628
829 1628
830 1628
831 1628
832 1628
833 1628
834 1628
835 1628
836 1628
837 1628
838 1628
839 1628
840 1628
841 1628
842 1628
843 1628
844 1628
845 1628
846 1628
847 1628
848 1628
849 1628
850 1628
851 1628
852 1628
853 1628
854 1628
855 1628
856 1628
857 1628
858 1628
859 1628
860 1628
861 1628
862 1628
863 1628
864 1628
865 1628
866 1628
867 1628
868 1628
869 1628
870 1628
871 1628
872 1628
873 1628
874 1628
875 1628
876 1628
877 1628
878 1628
879 1628
880 1628
881 1628
882 1628
883 1628
884 1628
885 1628
886 1628
887 1628
888 1628
889 1628
890 1628
891 1628
892 1628
893 1628
894 1628
895 1628
896 1628
897 1628
898 1628
899 1628
900 1628
901 1628
902 1628
903 1628
904 1628
905 1628
906 1628
907 1628
908 1628
909 1628
910 1628
911 1628
912 1628
913 1628
914 1628
915 1628
916 1628
917 1628
918 1628
919 1628
920 1628
921 1628
922 1628
923 1628
924 1628
925 1628
926 1628
927 1628
928 1628
929 1628
931 1628
931 1630
931 1631
931 1632
931 1633
931 1634
931 1635
931 1636
931 1637
931 1638
931 1639
931 1640
931 1641
931 1642
931 1643
931 1644
931 1645
931 1646
931 1647
931 1648
931 1649
931 1650
931 1651
931 1652
931 1653
931 1654
931 1655
931 1656
931 1657
931 1658
931 1659
931 1660
931 1661
931 1662
931 1663
931 1664
931 1665
931 1666
931 1667
931 1668
931 1669
931 1670
931 1671
931 1672
931 1673
931 1674
931 1675
931 1676
931 1677
931 1678
931 1679
931 1680
931 1681
931 1682
931 1683
931 1684
931 1685
931 1686
931 1687
931 1688
931 1689
931 1690
931 1691
931 1692
931 1693
931 1694
931 1695
931 1696
931 1697
931 1698
931 1699
931 1700
931 1701
931 1702
931 1703
931 1704
931 1705
931 1706
931 1707
931 1708
931 1709
931 1710
931 1711
931 1712
931 1713
931 1714
931 1715
931 1716
931 1717
931 1718
931 1719
931 1720
931 1721
931 1722
931 1723
931 1724
931 1725
931 1726
931 1727
931 1728
931 1729
931 1730
931 1731
931 1732
931 1733
931 1734
931 1735
931 1736
931 1737
931 1738
931 1739
931 1740
931 1741
931 1742
931 1743
931 1744
931 1745
931 1746
931 1747
931 1748
931 1749
931 1750
931 1751
931 1752
931 1753
931 1754
931 1755
931 1756
931 1757
931 1758
931 1759
931 1760
931 1761
931 1762
931 1763
931 1764
931 1765
931 1766
931 1767
931 1768
931 1769
931 1770
931 1771
931 1772
931 1773
931 1774
931 1775
931 1776
931 1777
931 1778
931 1779
931 1780
931 1781
931 1782
931 1783
931 1784
931 1785
931 1786
931 1787
931 1788
931 1789
931 1790
931 1791
931 1792
931 1793
931 1794
931 1795
931 1796
931 1797
931 1798
931 1799
931 1800
931 1801
931 1802
931 1803
931 1804
931 1805
931 1806
931 1807
931 1808
931 1809
931 1810
931 1811
931 1812
931 1813
931 1814
931 1815
931 1816
931 1817
931 1818
931 1819
932 1629
933 1629
934 1629
935 1629
936 1629
937 1629
938 1629
939 1629
940 1629
941 1629
942 1629
943 1629
944 1629
945 1629
946 1629
947 1629
948 1629
949 1629
930 1629
